# This is a comment. Comments start with #
SECTION_HORIZON
# All instances start on a Monday
# The horizon length in days:
28

SECTION_SHIFTS
# ShiftID_11, Length in mins, Shifts which cannot follow this shift | separated
a1_11,480,
a2_11,480,
d1_11,480,a1_11|a2_11
d2_11,480,a1_11|a2_11
p1_11,480,a1_11|a2_11|d1_11|d2_11
p2_11,480,a1_11|a2_11|d1_11|d2_11

SECTION_STAFF
# ID_11, MaxShifts, MaxTotalMinutes, MinTotalMinutes, MaxConsecutiveShifts, MinConsecutiveShifts, MinConsecutiveDaysOff, MaxWeekends
A_11,a1_11=28|a2_11=0|d1_11=0|d2_11=28|p1_11=28|p2_11=28,8640,7560,5,2,2,2
B_11,a1_11=28|a2_11=28|d1_11=0|d2_11=0|p1_11=28|p2_11=28,8640,7560,5,2,2,2
C_11,a1_11=28|a2_11=28|d1_11=0|d2_11=28|p1_11=28|p2_11=28,8640,7560,5,2,2,2
D_11,a1_11=28|a2_11=0|d1_11=28|d2_11=28|p1_11=28|p2_11=0,8640,7560,5,2,2,2
E_11,a1_11=28|a2_11=28|d1_11=0|d2_11=28|p1_11=28|p2_11=28,8640,7560,5,2,2,2
F_11,a1_11=0|a2_11=28|d1_11=0|d2_11=0|p1_11=0|p2_11=28,8640,7560,5,2,2,2
G_11,a1_11=28|a2_11=28|d1_11=0|d2_11=28|p1_11=28|p2_11=0,8640,7560,5,2,2,2
H_11,a1_11=28|a2_11=28|d1_11=28|d2_11=28|p1_11=28|p2_11=28,8640,7560,5,2,2,2
I_11,a1_11=0|a2_11=28|d1_11=0|d2_11=28|p1_11=28|p2_11=28,8640,7560,5,2,2,2
J_11,a1_11=0|a2_11=28|d1_11=0|d2_11=0|p1_11=28|p2_11=28,8640,7560,5,2,2,2
K_11,a1_11=28|a2_11=0|d1_11=28|d2_11=28|p1_11=28|p2_11=28,8640,7560,5,2,2,2
L_11,a1_11=28|a2_11=0|d1_11=28|d2_11=28|p1_11=28|p2_11=0,8640,7560,5,2,2,2
M_11,a1_11=28|a2_11=28|d1_11=28|d2_11=28|p1_11=28|p2_11=28,8640,7560,5,2,2,2
N_11,a1_11=28|a2_11=28|d1_11=0|d2_11=0|p1_11=28|p2_11=28,8640,7560,5,2,2,2
O_11,a1_11=0|a2_11=28|d1_11=28|d2_11=28|p1_11=0|p2_11=28,8640,7560,5,2,2,2
P_11,a1_11=28|a2_11=0|d1_11=0|d2_11=0|p1_11=28|p2_11=28,8640,7560,5,2,2,2
Q_11,a1_11=28|a2_11=28|d1_11=28|d2_11=28|p1_11=28|p2_11=28,8640,7560,5,2,2,2
R_11,a1_11=0|a2_11=28|d1_11=0|d2_11=28|p1_11=0|p2_11=28,8640,7560,5,2,2,2
S_11,a1_11=28|a2_11=28|d1_11=28|d2_11=0|p1_11=28|p2_11=28,8640,7560,5,2,2,2
T_11,a1_11=28|a2_11=0|d1_11=28|d2_11=0|p1_11=28|p2_11=0,8640,7560,5,2,2,2
U_11,a1_11=0|a2_11=28|d1_11=0|d2_11=28|p1_11=0|p2_11=28,8640,7560,5,2,2,2
V_11,a1_11=0|a2_11=28|d1_11=28|d2_11=0|p1_11=28|p2_11=28,8640,7560,5,2,2,2
W_11,a1_11=28|a2_11=0|d1_11=28|d2_11=28|p1_11=0|p2_11=28,8640,7560,5,2,2,2
X_11,a1_11=28|a2_11=0|d1_11=28|d2_11=28|p1_11=28|p2_11=28,8640,7560,5,2,2,2
Y_11,a1_11=0|a2_11=28|d1_11=28|d2_11=0|p1_11=28|p2_11=28,8640,7560,5,2,2,2
Z_11,a1_11=0|a2_11=28|d1_11=28|d2_11=0|p1_11=28|p2_11=28,8640,7560,5,2,2,2
AA_11,a1_11=28|a2_11=0|d1_11=28|d2_11=28|p1_11=0|p2_11=28,8640,7560,5,2,2,2
AB_11,a1_11=0|a2_11=28|d1_11=28|d2_11=0|p1_11=28|p2_11=28,8640,7560,5,2,2,2
AC_11,a1_11=28|a2_11=0|d1_11=28|d2_11=28|p1_11=28|p2_11=0,8640,7560,5,2,2,2
AD_11,a1_11=0|a2_11=28|d1_11=0|d2_11=28|p1_11=28|p2_11=28,8640,7560,5,2,2,2
AE_11,a1_11=28|a2_11=28|d1_11=0|d2_11=28|p1_11=0|p2_11=0,8640,7560,5,2,2,2
AF_11,a1_11=28|a2_11=0|d1_11=28|d2_11=28|p1_11=28|p2_11=28,8640,7560,5,2,2,2
AG_11,a1_11=28|a2_11=28|d1_11=0|d2_11=0|p1_11=28|p2_11=0,8640,7560,5,2,2,2
AH_11,a1_11=28|a2_11=28|d1_11=28|d2_11=28|p1_11=28|p2_11=0,8640,7560,5,2,2,2
AI_11,a1_11=28|a2_11=28|d1_11=28|d2_11=28|p1_11=28|p2_11=0,8640,7560,5,2,2,2
AJ_11,a1_11=0|a2_11=0|d1_11=28|d2_11=0|p1_11=0|p2_11=28,8640,7560,5,2,2,2
AK_11,a1_11=0|a2_11=28|d1_11=28|d2_11=28|p1_11=28|p2_11=0,8640,7560,5,2,2,2
AL_11,a1_11=28|a2_11=0|d1_11=28|d2_11=28|p1_11=0|p2_11=0,8640,7560,5,2,2,2
AM_11,a1_11=28|a2_11=0|d1_11=0|d2_11=28|p1_11=28|p2_11=0,8640,7560,5,2,2,2
AN_11,a1_11=28|a2_11=28|d1_11=28|d2_11=28|p1_11=0|p2_11=28,8640,7560,5,2,2,2
AO_11,a1_11=0|a2_11=0|d1_11=0|d2_11=28|p1_11=28|p2_11=28,8640,7560,6,2,3,2
AP_11,a1_11=28|a2_11=28|d1_11=28|d2_11=28|p1_11=0|p2_11=0,8640,7560,6,2,3,2
AQ_11,a1_11=0|a2_11=0|d1_11=0|d2_11=28|p1_11=28|p2_11=28,8640,7560,6,2,3,2
AR_11,a1_11=28|a2_11=28|d1_11=28|d2_11=0|p1_11=28|p2_11=28,8640,7560,6,2,3,2
AS_11,a1_11=28|a2_11=0|d1_11=28|d2_11=28|p1_11=0|p2_11=28,8640,7560,6,2,3,2
AT_11,a1_11=28|a2_11=28|d1_11=28|d2_11=28|p1_11=0|p2_11=28,8640,7560,6,2,3,2
AU_11,a1_11=0|a2_11=28|d1_11=0|d2_11=28|p1_11=28|p2_11=28,8640,7560,6,2,3,2
AV_11,a1_11=28|a2_11=28|d1_11=28|d2_11=28|p1_11=28|p2_11=0,8640,7560,6,2,3,2
AW_11,a1_11=0|a2_11=0|d1_11=0|d2_11=28|p1_11=28|p2_11=28,8640,7560,6,2,3,2
AX_11,a1_11=28|a2_11=28|d1_11=28|d2_11=28|p1_11=28|p2_11=28,8640,7560,6,2,3,2

SECTION_DAYS_OFF
# EmployeeID_11, DayIndexes (start at zero)
A_11,10,11
B_11,4,13
C_11,13,14
D_11,14,15
E_11,5,10
F_11,9,13
G_11,14,15
H_11,26,27
I_11,22,23
J_11,17,18
K_11,1,10
L_11,19,20
M_11,13,14
N_11,21,22
O_11,16,24
P_11,16,17
Q_11,17,18
R_11,9,16
S_11,15,16
T_11,2,23
U_11,1,10
V_11,1,12
W_11,3,4
X_11,3,4
Y_11,8,25
Z_11,18,19
AA_11,25,26
AB_11,8,12
AC_11,1,24
AD_11,10,11
AE_11,9,27
AF_11,7,8
AG_11,8,9
AH_11,25,26
AI_11,14,24
AJ_11,9,10
AK_11,11,12
AL_11,5,8
AM_11,1,2
AN_11,25,26
AO_11,9,18
AP_11,14,15
AQ_11,6,15
AR_11,13,19
AS_11,20,26
AT_11,2,8
AU_11,12,13
AV_11,8,16
AW_11,5,6
AX_11,22,23

SECTION_SHIFT_ON_REQUESTS
# EmployeeID_11, Day, ShiftID_11, Weight
A_11,7,p1_11,3
A_11,8,p1_11,3
A_11,9,p1_11,3
C_11,9,p1_11,1
C_11,24,p2_11,1
E_11,3,a1_11,1
E_11,8,a2_11,1
E_11,12,p1_11,1
E_11,13,p1_11,1
E_11,14,p1_11,1
E_11,21,a2_11,1
E_11,22,a2_11,1
E_11,23,a2_11,1
E_11,24,a2_11,1
E_11,25,a2_11,1
F_11,14,a2_11,3
F_11,15,a2_11,3
G_11,3,a1_11,3
G_11,4,a1_11,3
G_11,5,a1_11,3
G_11,6,a1_11,3
G_11,7,a1_11,3
H_11,1,d2_11,3
H_11,2,d2_11,3
H_11,3,d2_11,3
H_11,4,d2_11,3
H_11,5,d2_11,3
I_11,9,d2_11,3
I_11,10,d2_11,3
I_11,11,d2_11,3
I_11,18,p1_11,1
J_11,10,p2_11,1
J_11,11,p2_11,1
J_11,12,p2_11,1
J_11,13,p2_11,1
J_11,14,p2_11,1
K_11,3,p2_11,2
K_11,4,p2_11,2
K_11,5,p2_11,2
K_11,6,p2_11,2
K_11,7,p2_11,2
K_11,13,a1_11,3
M_11,20,a2_11,3
M_11,21,a2_11,3
M_11,22,a2_11,3
N_11,17,a2_11,1
O_11,3,p2_11,3
O_11,14,d2_11,2
O_11,19,p2_11,2
O_11,20,p2_11,2
O_11,25,d2_11,1
P_11,8,a1_11,2
P_11,14,a1_11,1
R_11,2,p2_11,3
R_11,3,p2_11,3
R_11,11,p2_11,2
R_11,12,p2_11,2
R_11,13,p2_11,2
R_11,14,p2_11,2
R_11,15,p2_11,2
S_11,0,p1_11,3
S_11,1,p1_11,3
S_11,2,p1_11,3
S_11,3,p1_11,3
S_11,4,p1_11,3
T_11,9,p1_11,1
T_11,10,p1_11,1
U_11,20,d2_11,1
U_11,21,d2_11,1
U_11,22,d2_11,1
V_11,8,d1_11,1
V_11,9,d1_11,1
V_11,13,p2_11,2
V_11,14,p2_11,2
V_11,15,p2_11,2
V_11,16,p2_11,2
W_11,0,a1_11,2
W_11,6,p2_11,2
W_11,7,p2_11,2
W_11,8,p2_11,2
W_11,9,p2_11,2
W_11,17,p2_11,3
W_11,18,p2_11,3
W_11,19,p2_11,3
W_11,20,p2_11,3
W_11,21,p2_11,3
X_11,19,d1_11,3
X_11,20,d1_11,3
X_11,21,d1_11,3
X_11,22,d1_11,3
X_11,23,d1_11,3
Y_11,3,p2_11,2
Y_11,9,a2_11,2
Y_11,10,a2_11,2
Y_11,11,a2_11,2
Y_11,12,a2_11,2
Z_11,13,p1_11,1
Z_11,14,p1_11,1
AA_11,5,a1_11,1
AA_11,9,a1_11,1
AA_11,10,a1_11,1
AA_11,11,a1_11,1
AA_11,12,a1_11,1
AA_11,13,a1_11,1
AA_11,18,a1_11,1
AA_11,19,a1_11,1
AA_11,20,a1_11,1
AA_11,21,a1_11,1
AA_11,27,p2_11,1
AB_11,23,a2_11,3
AB_11,24,a2_11,3
AB_11,25,a2_11,3
AB_11,26,a2_11,3
AB_11,27,a2_11,3
AC_11,3,d1_11,2
AC_11,4,d1_11,2
AE_11,0,d2_11,3
AE_11,1,d2_11,3
AE_11,2,d2_11,3
AE_11,10,a1_11,3
AE_11,11,a1_11,3
AF_11,0,p1_11,1
AF_11,1,p1_11,1
AF_11,2,p1_11,1
AF_11,3,p1_11,1
AF_11,4,p1_11,1
AG_11,24,a2_11,2
AH_11,3,d1_11,3
AH_11,4,d1_11,3
AH_11,5,d1_11,3
AH_11,6,d1_11,3
AH_11,7,d1_11,3
AH_11,13,p1_11,3
AH_11,14,p1_11,3
AH_11,15,p1_11,3
AH_11,16,p1_11,3
AI_11,0,a2_11,2
AI_11,1,a2_11,2
AI_11,2,a2_11,2
AI_11,15,a2_11,2
AI_11,16,a2_11,2
AI_11,17,a2_11,2
AI_11,18,a2_11,2
AK_11,23,p1_11,1
AL_11,2,a1_11,1
AL_11,14,a1_11,1
AL_11,15,a1_11,1
AL_11,16,a1_11,1
AL_11,17,a1_11,1
AL_11,18,a1_11,1
AM_11,3,a1_11,2
AM_11,4,a1_11,2
AM_11,5,a1_11,2
AM_11,14,a1_11,1
AM_11,21,a1_11,2
AM_11,22,a1_11,2
AM_11,23,a1_11,2
AN_11,10,a2_11,1
AN_11,11,a2_11,1
AN_11,12,a2_11,1
AN_11,13,a2_11,1
AO_11,3,d2_11,3
AO_11,4,d2_11,3
AP_11,0,a1_11,3
AP_11,5,a1_11,3
AP_11,6,a1_11,3
AP_11,7,a1_11,3
AP_11,8,a1_11,3
AT_11,13,d2_11,3
AT_11,14,d2_11,3
AT_11,15,d2_11,3
AT_11,16,d2_11,3
AT_11,25,a1_11,1
AT_11,26,a1_11,1
AT_11,27,a1_11,1
AU_11,16,p1_11,2
AU_11,17,p1_11,2
AU_11,18,p1_11,2
AU_11,27,d2_11,1
AV_11,1,d1_11,1
AV_11,2,d1_11,1
AV_11,3,d1_11,1
AV_11,4,d1_11,1
AV_11,5,d1_11,1
AV_11,17,d1_11,2
AV_11,18,d1_11,2
AV_11,19,d1_11,2
AV_11,20,d1_11,2
AV_11,24,d1_11,1
AV_11,25,d1_11,1
AW_11,3,d2_11,1
AW_11,18,p1_11,3
AX_11,0,p2_11,2
AX_11,1,p2_11,2
AX_11,2,p2_11,2
AX_11,3,p2_11,2
AX_11,4,p2_11,2

SECTION_SHIFT_OFF_REQUESTS
# EmployeeID_11, Day, ShiftID_11, Weight
A_11,15,p2_11,1
A_11,16,p2_11,1
A_11,20,a1_11,2
A_11,21,a1_11,2
A_11,22,a1_11,2
A_11,26,p2_11,2
A_11,27,p2_11,2
B_11,14,p1_11,2
B_11,15,p1_11,2
B_11,16,p1_11,2
B_11,17,p1_11,2
C_11,16,a2_11,3
C_11,17,a2_11,3
C_11,18,a2_11,3
C_11,19,a2_11,3
D_11,19,d2_11,2
D_11,20,d2_11,2
D_11,21,d2_11,2
D_11,22,d2_11,2
D_11,23,d2_11,2
G_11,25,a1_11,1
H_11,20,d2_11,1
H_11,21,d2_11,1
H_11,25,d1_11,3
I_11,1,a2_11,3
I_11,2,a2_11,3
I_11,3,a2_11,3
I_11,4,a2_11,3
I_11,5,a2_11,3
J_11,2,p2_11,3
J_11,3,p2_11,3
J_11,4,p2_11,3
J_11,21,p1_11,2
J_11,22,p1_11,2
J_11,23,p1_11,2
J_11,24,p1_11,2
K_11,20,p2_11,2
K_11,21,p2_11,2
K_11,22,p2_11,2
L_11,10,d1_11,1
L_11,11,d1_11,1
L_11,12,d1_11,1
L_11,13,d1_11,1
L_11,14,d1_11,1
L_11,21,d2_11,2
L_11,22,d2_11,2
L_11,23,d2_11,2
L_11,24,d2_11,2
L_11,25,d2_11,2
M_11,2,p1_11,3
M_11,3,p1_11,3
M_11,4,p1_11,3
M_11,5,p1_11,3
M_11,9,p1_11,2
M_11,10,p1_11,2
M_11,11,p1_11,2
M_11,12,p1_11,2
N_11,8,p1_11,2
N_11,9,p1_11,2
N_11,10,p1_11,2
N_11,11,p1_11,2
N_11,12,p1_11,2
P_11,18,p2_11,3
P_11,19,p2_11,3
P_11,20,p2_11,3
P_11,21,p2_11,3
P_11,22,p2_11,3
Q_11,24,p1_11,2
Q_11,25,p1_11,2
Q_11,26,p1_11,2
S_11,9,d1_11,2
S_11,10,d1_11,2
S_11,11,d1_11,2
T_11,17,a1_11,1
U_11,13,d2_11,2
Y_11,21,d1_11,3
Y_11,22,d1_11,3
Y_11,23,d1_11,3
Z_11,3,p1_11,3
Z_11,4,p1_11,3
Z_11,5,p1_11,3
Z_11,6,p1_11,3
Z_11,7,p1_11,3
Z_11,25,a2_11,3
Z_11,26,a2_11,3
Z_11,27,a2_11,3
AB_11,3,p1_11,3
AB_11,4,p1_11,3
AC_11,16,a1_11,2
AC_11,17,a1_11,2
AD_11,19,d2_11,1
AD_11,20,d2_11,1
AE_11,18,a2_11,3
AE_11,19,a2_11,3
AE_11,20,a2_11,3
AG_11,13,a2_11,1
AG_11,14,a2_11,1
AG_11,15,a2_11,1
AG_11,16,a2_11,1
AK_11,13,a2_11,1
AK_11,14,a2_11,1
AK_11,15,a2_11,1
AK_11,16,a2_11,1
AN_11,19,d1_11,2
AN_11,20,d1_11,2
AN_11,21,d1_11,2
AO_11,19,p2_11,1
AO_11,20,p2_11,1
AO_11,21,p2_11,1
AO_11,22,p2_11,1
AO_11,23,p2_11,1
AP_11,23,d1_11,3
AP_11,24,d1_11,3
AP_11,25,d1_11,3
AP_11,26,d1_11,3
AQ_11,2,d2_11,2
AQ_11,3,d2_11,2
AQ_11,4,d2_11,2
AQ_11,17,p2_11,2
AQ_11,18,p2_11,2
AQ_11,19,p2_11,2
AQ_11,20,p2_11,2
AQ_11,21,p2_11,2
AR_11,0,a2_11,1
AR_11,1,a2_11,1
AR_11,2,a2_11,1
AR_11,7,p2_11,2
AR_11,14,a1_11,2
AR_11,15,a1_11,2
AR_11,16,a1_11,2
AR_11,17,a1_11,2
AR_11,18,a1_11,2
AW_11,25,p1_11,2
AW_11,26,p1_11,2
AX_11,16,a1_11,1
AX_11,17,a1_11,1
AX_11,18,a1_11,1
AX_11,19,a1_11,1
AX_11,25,d2_11,1

SECTION_COVER
# Day, ShiftID_11, Requirement, Weight for under, Weight for over
0,a1_11,5,100,1
0,a2_11,3,100,1
0,d1_11,8,100,1
0,d2_11,3,100,1
0,p1_11,5,100,1
0,p2_11,4,100,1
1,a1_11,7,100,1
1,a2_11,3,100,1
1,d1_11,8,100,1
1,d2_11,3,100,1
1,p1_11,6,100,1
1,p2_11,5,100,1
2,a1_11,4,100,1
2,a2_11,4,100,1
2,d1_11,9,100,1
2,d2_11,3,100,1
2,p1_11,5,100,1
2,p2_11,2,100,1
3,a1_11,6,100,1
3,a2_11,3,100,1
3,d1_11,9,100,1
3,d2_11,3,100,1
3,p1_11,5,100,1
3,p2_11,4,100,1
4,a1_11,6,100,1
4,a2_11,3,100,1
4,d1_11,7,100,1
4,d2_11,2,100,1
4,p1_11,5,100,1
4,p2_11,3,100,1
5,a1_11,4,100,1
5,a2_11,3,100,1
5,d1_11,11,100,1
5,d2_11,3,100,1
5,p1_11,5,100,1
5,p2_11,5,100,1
6,a1_11,6,100,1
6,a2_11,2,100,1
6,d1_11,9,100,1
6,d2_11,4,100,1
6,p1_11,6,100,1
6,p2_11,3,100,1
7,a1_11,6,100,1
7,a2_11,2,100,1
7,d1_11,9,100,1
7,d2_11,3,100,1
7,p1_11,5,100,1
7,p2_11,3,100,1
8,a1_11,7,100,1
8,a2_11,3,100,1
8,d1_11,9,100,1
8,d2_11,2,100,1
8,p1_11,6,100,1
8,p2_11,2,100,1
9,a1_11,6,100,1
9,a2_11,4,100,1
9,d1_11,8,100,1
9,d2_11,3,100,1
9,p1_11,6,100,1
9,p2_11,3,100,1
10,a1_11,7,100,1
10,a2_11,2,100,1
10,d1_11,9,100,1
10,d2_11,3,100,1
10,p1_11,6,100,1
10,p2_11,4,100,1
11,a1_11,7,100,1
11,a2_11,3,100,1
11,d1_11,8,100,1
11,d2_11,2,100,1
11,p1_11,7,100,1
11,p2_11,3,100,1
12,a1_11,6,100,1
12,a2_11,3,100,1
12,d1_11,10,100,1
12,d2_11,5,100,1
12,p1_11,6,100,1
12,p2_11,3,100,1
13,a1_11,6,100,1
13,a2_11,3,100,1
13,d1_11,8,100,1
13,d2_11,5,100,1
13,p1_11,6,100,1
13,p2_11,4,100,1
14,a1_11,5,100,1
14,a2_11,3,100,1
14,d1_11,9,100,1
14,d2_11,3,100,1
14,p1_11,5,100,1
14,p2_11,3,100,1
15,a1_11,6,100,1
15,a2_11,3,100,1
15,d1_11,6,100,1
15,d2_11,3,100,1
15,p1_11,7,100,1
15,p2_11,3,100,1
16,a1_11,7,100,1
16,a2_11,3,100,1
16,d1_11,8,100,1
16,d2_11,2,100,1
16,p1_11,6,100,1
16,p2_11,3,100,1
17,a1_11,6,100,1
17,a2_11,3,100,1
17,d1_11,7,100,1
17,d2_11,2,100,1
17,p1_11,6,100,1
17,p2_11,2,100,1
18,a1_11,7,100,1
18,a2_11,3,100,1
18,d1_11,8,100,1
18,d2_11,4,100,1
18,p1_11,4,100,1
18,p2_11,5,100,1
19,a1_11,5,100,1
19,a2_11,4,100,1
19,d1_11,7,100,1
19,d2_11,3,100,1
19,p1_11,4,100,1
19,p2_11,3,100,1
20,a1_11,6,100,1
20,a2_11,3,100,1
20,d1_11,9,100,1
20,d2_11,3,100,1
20,p1_11,6,100,1
20,p2_11,3,100,1
21,a1_11,5,100,1
21,a2_11,3,100,1
21,d1_11,9,100,1
21,d2_11,3,100,1
21,p1_11,5,100,1
21,p2_11,4,100,1
22,a1_11,6,100,1
22,a2_11,3,100,1
22,d1_11,8,100,1
22,d2_11,4,100,1
22,p1_11,8,100,1
22,p2_11,3,100,1
23,a1_11,5,100,1
23,a2_11,2,100,1
23,d1_11,10,100,1
23,d2_11,3,100,1
23,p1_11,3,100,1
23,p2_11,3,100,1
24,a1_11,7,100,1
24,a2_11,4,100,1
24,d1_11,8,100,1
24,d2_11,2,100,1
24,p1_11,5,100,1
24,p2_11,3,100,1
25,a1_11,4,100,1
25,a2_11,5,100,1
25,d1_11,6,100,1
25,d2_11,4,100,1
25,p1_11,5,100,1
25,p2_11,4,100,1
26,a1_11,7,100,1
26,a2_11,2,100,1
26,d1_11,8,100,1
26,d2_11,3,100,1
26,p1_11,4,100,1
26,p2_11,4,100,1
27,a1_11,5,100,1
27,a2_11,2,100,1
27,d1_11,7,100,1
27,d2_11,3,100,1
27,p1_11,5,100,1
27,p2_11,2,100,1
